3361860
28,93,106,15,24,23,22,14,65,76,9,49,17,72,86,52,16,79,55,91,3,66,78,56,74,85,26,68,69,105,41,87,11,38,71,25,37,40,35,27,102,60,31,33,97,100,34,4,0,51,82,2,107,77,77,61,18,83,50,58,75,6,98,53,103,10,48,30,13,7,67,39,54,59,64,12,20,47,19,62,43,1,80,45,8,36,96,46,70,73,29,5,94,42,84,57,90,90,89,44,81,108,63,21,101,104,95,92,99
